
Gurobi 9.5.1 (linux64) logging started Sat Jun 18 17:08:46 2022

Set parameter LogFile to value "../results/logs/log_web-Google_4_250_2022_06_18_14_18.log"
Gurobi Optimizer version 9.5.1 build v9.5.1rc2 (linux64)
Thread count: 8 physical cores, 8 logical processors, using up to 8 threads
Optimize a model with 335599 rows, 1751426 columns and 1914081 nonzeros
Model fingerprint: 0x9890b010
Variable types: 0 continuous, 1751426 integer (1751426 binary)
Coefficient statistics:
  Matrix range     [1e+00, 4e+00]
  Objective range  [1e+00, 1e+00]
  Bounds range     [1e+00, 1e+00]
  RHS range        [1e+00, 2e+02]
Found heuristic solution: objective 492655.00000
Presolve removed 245181 rows and 1651720 columns (presolve time = 5s) ...
Presolve removed 245181 rows and 1651720 columns
Presolve time: 5.88s
Presolved: 90418 rows, 99706 columns, 369639 nonzeros
Extracted 38563 lazy constraints
Found heuristic solution: objective 493046.00000
Variable types: 0 continuous, 99706 integer (87183 binary)

Deterministic concurrent LP optimizer: primal and dual simplex
Showing first log only...


Root simplex log...

Iteration    Objective       Primal Inf.    Dual Inf.      Time
       0    5.0109000e+05   0.000000e+00   1.997968e+05      7s
   23913    5.1391401e+05   0.000000e+00   0.000000e+00      7s
   23913    5.1391401e+05   0.000000e+00   0.000000e+00      7s

Use crossover to convert LP symmetric solution to basic solution...

Root crossover log...

       0 DPushes remaining with DInf 0.0000000e+00                 7s

     202 PPushes remaining with PInf 0.0000000e+00                 7s
       0 PPushes remaining with PInf 0.0000000e+00                 7s

  Push phase complete: Pinf 0.0000000e+00, Dinf 2.4728275e-12      7s


Root simplex log...

Iteration    Objective       Primal Inf.    Dual Inf.      Time
   24238    5.1391401e+05   0.000000e+00   0.000000e+00      7s
Concurrent spin time: 0.01s

Solved with primal simplex

Root relaxation: objective 5.139140e+05, 24238 iterations, 0.76 seconds (0.79 work units)

    Nodes    |    Current Node    |     Objective Bounds      |     Work
 Expl Unexpl |  Obj  Depth IntInf | Incumbent    BestBd   Gap | It/Node Time

     0     0 513914.014    0 11940 493046.000 513914.014  4.23%     -   10s
H    0     0                    493084.00000 513914.014  4.22%     -   11s
     0     0 497576.751    0 6970 493084.000 497576.751  0.91%     -   19s
     0     0 497576.751    0 6970 493084.000 497576.751  0.91%     -   20s
H    0     0                    493859.00000 497576.751  0.75%     -   20s
     0     0 496392.479    0 4967 493859.000 496392.479  0.51%     -   26s
     0     0 496335.460    0 4765 493859.000 496335.460  0.50%     -   31s
     0     0 496326.910    0 4730 493859.000 496326.910  0.50%     -   32s
     0     0 495136.515    0 2749 493859.000 495136.515  0.26%     -   35s
H    0     0                    494383.00000 495136.515  0.15%     -   35s
     0     0 495007.268    0 2394 494383.000 495007.268  0.13%     -   36s
     0     0 494998.735    0 2395 494383.000 494998.735  0.12%     -   36s
     0     0 494769.434    0 1724 494383.000 494769.434  0.08%     -   41s
H    0     0                    494484.00000 494769.434  0.06%     -   41s
H    0     0                    494521.00000 494769.434  0.05%     -   42s
     0     0 494729.333    0 1511 494521.000 494729.333  0.04%     -   42s
     0     0 494723.684    0 1489 494521.000 494723.684  0.04%     -   43s
     0     0 494672.158    0 1086 494521.000 494672.158  0.03%     -   46s
H    0     0                    494557.00000 494672.158  0.02%     -   46s
     0     0 494663.950    0  981 494557.000 494663.950  0.02%     -   47s
     0     0 494653.566    0  963 494557.000 494653.566  0.02%     -   48s
H    0     0                    494569.00000 494653.566  0.02%     -   48s
     0     0 494650.921    0  960 494569.000 494650.921  0.02%     -   49s
     0     0 494645.012    0  936 494569.000 494645.012  0.02%     -   50s
     0     0 494645.012    0  910 494569.000 494645.012  0.02%     -   87s
H    0     0                    494570.00000 494645.012  0.02%     -   87s
H    0     2                    494574.00000 494643.828  0.01%     -   95s
     0     2 494643.828    0  891 494574.000 494643.828  0.01%     -   95s
     7    16 494640.828    3  913 494574.000 494641.600  0.01%   292  101s
    15    24 494639.789    4  911 494574.000 494639.789  0.01%   158  106s
    31    40 494637.664    6  897 494574.000 494639.228  0.01%   131  110s
    61    92 494634.101   10  889 494574.000 494639.228  0.01%  80.2  116s
    91   298 494631.559   14  878 494574.000 494639.228  0.01%  78.5  123s
H  185   298                    494575.00000 494639.228  0.01%  44.8  123s
   297   725 494623.093   31  830 494575.000 494639.228  0.01%  34.7  141s
   790  1102 494606.886   62  660 494575.000 494639.228  0.01%  19.9  159s
  1273  1561 494579.433  139  180 494575.000 494635.956  0.01%  19.7  173s
  1820  1562 494601.426   55  910 494575.000 494634.142  0.01%  18.5  197s
  1822  1563 494598.104   69 7172 494575.000 494634.142  0.01%  18.5  205s
  1823  1564 494591.236   43 4490 494575.000 494634.142  0.01%  18.5  213s
  1824  1565 494589.828   78 2264 494575.000 494634.142  0.01%  18.5  217s
  1827  1567 494615.169   34  965 494575.000 494634.142  0.01%  18.5  220s
H 1831  1490                    494577.00000 494607.300  0.01%  18.4  223s
  1835  1493 494591.281   65  415 494577.000 494603.223  0.01%  18.4  225s
  1843  1498 494585.167   67  265 494577.000 494585.167  0.00%  18.3  230s
  1848  1502 494581.587   61  104 494577.000 494581.587  0.00%  18.3  235s
  1853  1506 494581.113   12 4007 494577.000 494581.113  0.00%  53.4  241s
H 1853  1430                    494578.00000 494581.113  0.00%  53.4  242s
H 1865  1367                    494579.00000 494580.708  0.00%  64.1  246s

Cutting planes:
  Gomory: 129
  Lift-and-project: 1
  Cover: 31
  Implied bound: 8
  Clique: 18
  MIR: 378
  StrongCG: 19
  Flow cover: 172
  GUB cover: 447
  Zero half: 76
  RLT: 82
  Relax-and-lift: 5

Explored 1865 nodes (188135 simplex iterations) in 246.79 seconds (205.07 work units)
Thread count was 8 (of 8 available processors)

Solution count 10: 494579 494578 494577 ... 494484

Optimal solution found (tolerance 0.00e+00)
Best objective 4.945790000000e+05, best bound 4.945790000000e+05, gap 0.0000%
